(set-logic QF_LIA)
(declare-fun x0 () Int)
(declare-fun x1 () Int)
(declare-fun x2 () Int)
(declare-fun x3 () Int)
(declare-fun x4 () Int)
(declare-fun x5 () Int)
(declare-fun x6 () Int)
(declare-fun x7 () Int)
(declare-fun x8 () Int)
(declare-fun x9 () Int)
(declare-fun A0 () Bool)
(declare-fun A1 () Bool)
(declare-fun A2 () Bool)
(declare-fun A3 () Bool)
(declare-fun A4 () Bool)
(declare-fun A5 () Bool)
(declare-fun A6 () Bool)
(declare-fun A7 () Bool)
(declare-fun A8 () Bool)
(declare-fun A9 () Bool)
(assert (let ((.def_0 (not A7))) (let ((.def_1 (* 1 x0))) (let ((.def_2 (< .def_1 1))) (let ((.def_3 (= .def_2 .def_0))) (let ((.def_4 (not A4))) (let ((.def_5 (* 1 x4))) (let ((.def_6 (< .def_5 (- 1)))) (let ((.def_7 (not .def_6))) (let ((.def_8 (or .def_7 .def_4))) (let ((.def_9 (and .def_8 .def_3))) (let ((.def_10 (not .def_9))) (let ((.def_11 (* 1 x9))) (let ((.def_12 (< .def_11 (- 1)))) (let ((.def_13 (not .def_12))) (let ((.def_14 (or .def_13 .def_0))) (let ((.def_15 (* 1 x8))) (let ((.def_16 (* 1 x5))) (let ((.def_17 (+ .def_16 .def_15))) (let ((.def_18 (< .def_17 1))) (let ((.def_19 (not .def_18))) (let ((.def_20 (not A5))) (let ((.def_21 (or .def_20 .def_19))) (let ((.def_22 (not .def_21))) (let ((.def_23 (or .def_22 .def_14))) (let ((.def_24 (not .def_23))) (let ((.def_25 (or .def_24 .def_10))) (let ((.def_26 (not .def_25))) (let ((.def_27 (and A4 .def_20))) (let ((.def_28 (not A9))) (let ((.def_29 (* (- 1) x2))) (let ((.def_30 (< .def_29 (- 1)))) (let ((.def_31 (not .def_30))) (let ((.def_32 (and .def_31 .def_28))) (let ((.def_33 (or .def_32 .def_27))) (let ((.def_34 (not .def_33))) (let ((.def_35 (not A8))) (let ((.def_36 (* (- 1) x0))) (let ((.def_37 (+ .def_36 .def_15))) (let ((.def_38 (< .def_37 1))) (let ((.def_39 (and .def_38 .def_35))) (let ((.def_40 (* (- 1) x9))) (let ((.def_41 (* 1 x2))) (let ((.def_42 (+ .def_41 .def_40))) (let ((.def_43 (< .def_42 (- 1)))) (let ((.def_44 (and A7 .def_43))) (let ((.def_45 (and .def_44 .def_39))) (let ((.def_46 (not .def_45))) (let ((.def_47 (= .def_46 .def_34))) (let ((.def_48 (and .def_47 .def_26))) (let ((.def_49 (* 1 x6))) (let ((.def_50 (+ .def_49 .def_41))) (let ((.def_51 (< .def_50 1))) (let ((.def_52 (not .def_51))) (let ((.def_53 (* (- 1) x8))) (let ((.def_54 (< .def_53 (- 1)))) (let ((.def_55 (not .def_54))) (let ((.def_56 (= .def_55 .def_52))) (let ((.def_57 (not .def_56))) (let ((.def_58 (+ .def_11 .def_41))) (let ((.def_59 (< .def_58 (- 1)))) (let ((.def_60 (* (- 1) x7))) (let ((.def_61 (+ .def_40 .def_60))) (let ((.def_62 (< .def_61 (- 1)))) (let ((.def_63 (or .def_62 .def_59))) (let ((.def_64 (or .def_63 .def_57))) (let ((.def_65 (not A3))) (let ((.def_66 (< .def_15 1))) (let ((.def_67 (not .def_66))) (let ((.def_68 (and .def_67 .def_65))) (let ((.def_69 (not A0))) (let ((.def_70 (* 1 x1))) (let ((.def_71 (< .def_70 (- 1)))) (let ((.def_72 (not .def_71))) (let ((.def_73 (and .def_72 .def_69))) (let ((.def_74 (not .def_73))) (let ((.def_75 (and .def_74 .def_68))) (let ((.def_76 (not .def_75))) (let ((.def_77 (or .def_76 .def_64))) (let ((.def_78 (not .def_77))) (let ((.def_79 (and A5 A3))) (let ((.def_80 (+ .def_60 .def_70))) (let ((.def_81 (< .def_80 1))) (let ((.def_82 (and A1 .def_81))) (let ((.def_83 (or .def_82 .def_79))) (let ((.def_84 (+ .def_70 .def_49))) (let ((.def_85 (< .def_84 1))) (let ((.def_86 (or A4 .def_85))) (let ((.def_87 (not .def_86))) (let ((.def_88 (and A5 A9))) (let ((.def_89 (= .def_88 .def_87))) (let ((.def_90 (or .def_89 .def_83))) (let ((.def_91 (= .def_90 .def_78))) (let ((.def_92 (not .def_91))) (let ((.def_93 (and .def_92 .def_48))) (let ((.def_94 (* 1 x3))) (let ((.def_95 (< .def_94 (- 1)))) (let ((.def_96 (or .def_4 .def_95))) (let ((.def_97 (* (- 1) x3))) (let ((.def_98 (+ .def_97 .def_41))) (let ((.def_99 (< .def_98 1))) (let ((.def_100 (< .def_15 (- 1)))) (let ((.def_101 (not .def_100))) (let ((.def_102 (and .def_101 .def_99))) (let ((.def_103 (and .def_102 .def_96))) (let ((.def_104 (not .def_103))) (let ((.def_105 (or A0 A0))) (let ((.def_106 (not .def_105))) (let ((.def_107 (and .def_66 A9))) (let ((.def_108 (= .def_107 .def_106))) (let ((.def_109 (and .def_108 .def_104))) (let ((.def_110 (+ .def_29 .def_15))) (let ((.def_111 (< .def_110 (- 1)))) (let ((.def_112 (not .def_111))) (let ((.def_113 (or A4 .def_112))) (let ((.def_114 (not .def_113))) (let ((.def_115 (not A6))) (let ((.def_116 (or .def_115 .def_35))) (let ((.def_117 (or .def_116 .def_114))) (let ((.def_118 (not .def_117))) (let ((.def_119 (< .def_40 (- 1)))) (let ((.def_120 (not .def_119))) (let ((.def_121 (or .def_28 .def_120))) (let ((.def_122 (< .def_29 1))) (let ((.def_123 (not .def_122))) (let ((.def_124 (+ .def_1 .def_94))) (let ((.def_125 (< .def_124 1))) (let ((.def_126 (not .def_125))) (let ((.def_127 (or .def_126 .def_123))) (let ((.def_128 (and .def_127 .def_121))) (let ((.def_129 (not .def_128))) (let ((.def_130 (or .def_129 .def_118))) (let ((.def_131 (not .def_130))) (let ((.def_132 (= .def_131 .def_109))) (let ((.def_133 (not .def_132))) (let ((.def_134 (or A4 .def_69))) (let ((.def_135 (not .def_134))) (let ((.def_136 (+ .def_1 .def_41))) (let ((.def_137 (< .def_136 1))) (let ((.def_138 (and .def_137 A2))) (let ((.def_139 (not .def_138))) (let ((.def_140 (and .def_139 .def_135))) (let ((.def_141 (not .def_140))) (let ((.def_142 (* (- 1) x6))) (let ((.def_143 (+ .def_11 .def_142))) (let ((.def_144 (< .def_143 1))) (let ((.def_145 (or .def_144 A0))) (let ((.def_146 (not .def_145))) (let ((.def_147 (+ .def_60 .def_1))) (let ((.def_148 (< .def_147 (- 1)))) (let ((.def_149 (not .def_148))) (let ((.def_150 (or .def_0 .def_149))) (let ((.def_151 (not .def_150))) (let ((.def_152 (or .def_151 .def_146))) (let ((.def_153 (or .def_152 .def_141))) (let ((.def_154 (not .def_153))) (let ((.def_155 (< .def_70 1))) (let ((.def_156 (not .def_155))) (let ((.def_157 (and .def_156 A8))) (let ((.def_158 (not .def_157))) (let ((.def_159 (and .def_123 .def_28))) (let ((.def_160 (= .def_159 .def_158))) (let ((.def_161 (and A9 .def_122))) (let ((.def_162 (not .def_161))) (let ((.def_163 (* (- 1) x5))) (let ((.def_164 (+ .def_94 .def_163))) (let ((.def_165 (< .def_164 (- 1)))) (let ((.def_166 (not .def_165))) (let ((.def_167 (and .def_166 A1))) (let ((.def_168 (and .def_167 .def_162))) (let ((.def_169 (= .def_168 .def_160))) (let ((.def_170 (and .def_169 .def_154))) (let ((.def_171 (not .def_170))) (let ((.def_172 (and .def_171 .def_133))) (let ((.def_173 (or .def_172 .def_93))) (let ((.def_174 (not .def_173))) (let ((.def_175 (+ .def_11 .def_1))) (let ((.def_176 (< .def_175 1))) (let ((.def_177 (and .def_31 .def_176))) (let ((.def_178 (* (- 1) x1))) (let ((.def_179 (+ .def_97 .def_178))) (let ((.def_180 (< .def_179 1))) (let ((.def_181 (= .def_65 .def_180))) (let ((.def_182 (not .def_181))) (let ((.def_183 (or .def_182 .def_177))) (let ((.def_184 (+ .def_142 .def_41))) (let ((.def_185 (< .def_184 1))) (let ((.def_186 (or .def_185 A1))) (let ((.def_187 (and A1 .def_115))) (let ((.def_188 (or .def_187 .def_186))) (let ((.def_189 (not .def_188))) (let ((.def_190 (or .def_189 .def_183))) (let ((.def_191 (+ .def_163 .def_15))) (let ((.def_192 (< .def_191 (- 1)))) (let ((.def_193 (not .def_192))) (let ((.def_194 (or .def_65 .def_193))) (let ((.def_195 (not .def_194))) (let ((.def_196 (< .def_50 (- 1)))) (let ((.def_197 (and .def_0 .def_196))) (let ((.def_198 (or .def_197 .def_195))) (let ((.def_199 (not .def_198))) (let ((.def_200 (* (- 1) x4))) (let ((.def_201 (+ .def_60 .def_200))) (let ((.def_202 (< .def_201 1))) (let ((.def_203 (+ .def_60 .def_178))) (let ((.def_204 (< .def_203 (- 1)))) (let ((.def_205 (and .def_204 .def_202))) (let ((.def_206 (not .def_205))) (let ((.def_207 (+ .def_70 .def_200))) (let ((.def_208 (< .def_207 1))) (let ((.def_209 (+ .def_94 .def_1))) (let ((.def_210 (< .def_209 (- 1)))) (let ((.def_211 (and .def_210 .def_208))) (let ((.def_212 (not .def_211))) (let ((.def_213 (or .def_212 .def_206))) (let ((.def_214 (and .def_213 .def_199))) (let ((.def_215 (and .def_214 .def_190))) (let ((.def_216 (not .def_215))) (let ((.def_217 (not A2))) (let ((.def_218 (and .def_217 .def_55))) (let ((.def_219 (* 1 x7))) (let ((.def_220 (< .def_219 1))) (let ((.def_221 (not .def_220))) (let ((.def_222 (+ .def_15 .def_16))) (let ((.def_223 (< .def_222 1))) (let ((.def_224 (not .def_223))) (let ((.def_225 (= .def_224 .def_221))) (let ((.def_226 (= .def_225 .def_218))) (let ((.def_227 (not .def_226))) (let ((.def_228 (+ .def_15 .def_29))) (let ((.def_229 (< .def_228 1))) (let ((.def_230 (+ .def_15 .def_97))) (let ((.def_231 (< .def_230 1))) (let ((.def_232 (and .def_231 .def_229))) (let ((.def_233 (+ .def_36 .def_49))) (let ((.def_234 (< .def_233 (- 1)))) (let ((.def_235 (not .def_234))) (let ((.def_236 (or .def_235 A8))) (let ((.def_237 (and .def_236 .def_232))) (let ((.def_238 (not .def_237))) (let ((.def_239 (and .def_238 .def_227))) (let ((.def_240 (not .def_239))) (let ((.def_241 (< .def_49 (- 1)))) (let ((.def_242 (< .def_178 (- 1)))) (let ((.def_243 (not .def_242))) (let ((.def_244 (or .def_243 .def_241))) (let ((.def_245 (and A2 A9))) (let ((.def_246 (not .def_245))) (let ((.def_247 (and .def_246 .def_244))) (let ((.def_248 (not .def_247))) (let ((.def_249 (< .def_200 (- 1)))) (let ((.def_250 (not .def_249))) (let ((.def_251 (= .def_35 .def_250))) (let ((.def_252 (not .def_251))) (let ((.def_253 (and .def_4 .def_35))) (let ((.def_254 (or .def_253 .def_252))) (let ((.def_255 (and .def_254 .def_248))) (let ((.def_256 (not .def_255))) (let ((.def_257 (and .def_256 .def_240))) (let ((.def_258 (not .def_257))) (let ((.def_259 (and .def_258 .def_216))) (let ((.def_260 (not .def_259))) (let ((.def_261 (+ .def_94 .def_70))) (let ((.def_262 (< .def_261 (- 1)))) (let ((.def_263 (not .def_262))) (let ((.def_264 (+ .def_40 .def_5))) (let ((.def_265 (< .def_264 (- 1)))) (let ((.def_266 (and .def_265 .def_263))) (let ((.def_267 (+ .def_142 .def_11))) (let ((.def_268 (< .def_267 (- 1)))) (let ((.def_269 (not .def_268))) (let ((.def_270 (and .def_269 A7))) (let ((.def_271 (= .def_270 .def_266))) (let ((.def_272 (not .def_271))) (let ((.def_273 (< .def_94 1))) (let ((.def_274 (not .def_273))) (let ((.def_275 (+ .def_94 .def_142))) (let ((.def_276 (< .def_275 (- 1)))) (let ((.def_277 (not .def_276))) (let ((.def_278 (and .def_277 .def_274))) (let ((.def_279 (or .def_217 A3))) (let ((.def_280 (not .def_279))) (let ((.def_281 (and .def_280 .def_278))) (let ((.def_282 (not .def_281))) (let ((.def_283 (or .def_282 .def_272))) (let ((.def_284 (not .def_283))) (let ((.def_285 (< .def_16 (- 1)))) (let ((.def_286 (= .def_66 .def_285))) (let ((.def_287 (+ .def_29 .def_178))) (let ((.def_288 (< .def_287 (- 1)))) (let ((.def_289 (not .def_288))) (let ((.def_290 (and A0 .def_289))) (let ((.def_291 (not .def_290))) (let ((.def_292 (= .def_291 .def_286))) (let ((.def_293 (not .def_292))) (let ((.def_294 (or .def_35 A4))) (let ((.def_295 (+ .def_97 .def_5))) (let ((.def_296 (< .def_295 1))) (let ((.def_297 (not .def_296))) (let ((.def_298 (or .def_101 .def_297))) (let ((.def_299 (not .def_298))) (let ((.def_300 (or .def_299 .def_294))) (let ((.def_301 (or .def_300 .def_293))) (let ((.def_302 (not .def_301))) (let ((.def_303 (or .def_302 .def_284))) (let ((.def_304 (+ .def_41 .def_11))) (let ((.def_305 (< .def_304 (- 1)))) (let ((.def_306 (not .def_305))) (let ((.def_307 (+ .def_36 .def_178))) (let ((.def_308 (< .def_307 (- 1)))) (let ((.def_309 (and .def_308 .def_306))) (let ((.def_310 (not .def_309))) (let ((.def_311 (+ .def_219 .def_49))) (let ((.def_312 (< .def_311 (- 1)))) (let ((.def_313 (not .def_312))) (let ((.def_314 (or .def_313 A6))) (let ((.def_315 (or .def_314 .def_310))) (let ((.def_316 (+ .def_178 .def_29))) (let ((.def_317 (< .def_316 (- 1)))) (let ((.def_318 (not .def_317))) (let ((.def_319 (< .def_97 1))) (let ((.def_320 (or .def_319 .def_318))) (let ((.def_321 (not .def_320))) (let ((.def_322 (+ .def_40 .def_200))) (let ((.def_323 (< .def_322 (- 1)))) (let ((.def_324 (not .def_323))) (let ((.def_325 (or A8 .def_324))) (let ((.def_326 (not .def_325))) (let ((.def_327 (and .def_326 .def_321))) (let ((.def_328 (= .def_327 .def_315))) (let ((.def_329 (not .def_328))) (let ((.def_330 (and A6 .def_285))) (let ((.def_331 (not .def_330))) (let ((.def_332 (and .def_12 A1))) (let ((.def_333 (not .def_332))) (let ((.def_334 (or .def_333 .def_331))) (let ((.def_335 (+ .def_70 .def_163))) (let ((.def_336 (< .def_335 1))) (let ((.def_337 (= A1 .def_336))) (let ((.def_338 (not .def_337))) (let ((.def_339 (or .def_69 A1))) (let ((.def_340 (or .def_339 .def_338))) (let ((.def_341 (and .def_340 .def_334))) (let ((.def_342 (not .def_341))) (let ((.def_343 (or .def_342 .def_329))) (let ((.def_344 (and .def_343 .def_303))) (let ((.def_345 (not .def_344))) (let ((.def_346 (and .def_345 .def_260))) (let ((.def_347 (not .def_346))) (let ((.def_348 (and .def_347 .def_174))) (let ((.def_349 (not .def_348))) (let ((.def_350 (<= x9 1))) (let ((.def_351 (<= 0 x9))) (let ((.def_352 (<= x8 1))) (let ((.def_353 (<= 0 x8))) (let ((.def_354 (<= x7 1))) (let ((.def_355 (<= 0 x7))) (let ((.def_356 (<= x6 1))) (let ((.def_357 (<= 0 x6))) (let ((.def_358 (<= x5 1))) (let ((.def_359 (<= 0 x5))) (let ((.def_360 (<= x4 1))) (let ((.def_361 (<= 0 x4))) (let ((.def_362 (<= x3 1))) (let ((.def_363 (<= 0 x3))) (let ((.def_364 (<= x2 1))) (let ((.def_365 (<= 0 x2))) (let ((.def_366 (<= x1 1))) (let ((.def_367 (<= 0 x1))) (let ((.def_368 (<= x0 1))) (let ((.def_369 (<= 0 x0))) (let ((.def_370 (and .def_369 .def_368 .def_367 .def_366 .def_365 .def_364 .def_363 .def_362 .def_361 .def_360 .def_359 .def_358 .def_357 .def_356 .def_355 .def_354 .def_353 .def_352 .def_351 .def_350 .def_349))) .def_370))))))))))))))))))))))))))))))))))))))))))))))))))))))))))))))))))))))))))))))))))))))))))))))))))))))))))))))))))))))))))))))))))))))))))))))))))))))))))))))))))))))))))))))))))))))))))))))))))))))))))))))))))))))))))))))))))))))))))))))))))))))))))))))))))))))))))))))))))))))))))))))))))))))))))))))))))))))))))))))))))))))))))))))))))))))))))))))))))))))))))))))))))))
(check-sat)
